c107

VEHICLE
NUMBER                                               CAPACITY
4                                                     1236

0      40      50      0      0      0      0      0      0      1236
1      45      68      90      10      1      1      1      850      1030
2      45      70      90      30      1      1      1      758      938
3      42      66      90      10      1      1      1      16      196
4      42      68      90      10      1      1      1      665      845
5      42      65      90      10      1      1      1      15      195
6      40      69      90      20      1      1      1      572      752
7      40      66      90      20      1      1      1      108      288
8      38      68      90      20      1      1      1      200      380
9      38      70      90      10      1      1      1      480      660
10      35      66      90      10      1      1      1      294      474
11      35      69      90      10      1      1      1      387      567
12      25      85      90      20      1      1      1      597      777
13      22      75      90      30      1      1      1      30      210
14      22      85      90      10      1      1      1      504      684
15      20      80      90      40      1      1      1      317      497
16      20      85      90      40      1      1      1      412      592
17      18      75      90      20      1      1      1      34      214
18      15      75      90      20      1      1      1      127      307
19      15      80      90      10      1      1      1      222      402
20      30      50      90      10      1      1      1      10      190
21      30      52      90      20      1      1      1      850      1030
22      28      52      90      20      1      1      1      758      938
23      28      55      90      10      1      1      1      665      845
24      25      50      90      10      1      1      1      15      195
25      25      52      90      40      1      1      1      107      287
26      25      55      90      10      1      1      1      572      752
27      23      52      90      10      1      1      1      199      379
28      23      55      90      20      1      1      1      480      660
29      20      50      90      10      1      1      1      292      472
30      20      55      90      10      1      1      1      387      567
31      10      35      90      20      1      1      1      129      309
32      10      40      90      30      1      1      1      31      211
33      8      40      90      40      1      1      1      33      213
34      8      45      90      20      1      1      1      694      874
35      5      35      90      10      1      1      1      224      404
36      5      45      90      10      1      1      1      601      781
37      2      40      90      20      1      1      1      319      499
38      0      40      90      30      1      1      1      411      591
39      0      45      90      20      1      1      1      506      686
40      35      30      90      10      1      1      1      203      383
41      35      32      90      10      1      1      1      111      291
42      33      32      90      20      1      1      1      19      199
43      33      35      90      10      1      1      1      16      196
44      32      30      90      10      1      1      1      296      476
45      30      30      90      10      1      1      1      481      661
46      30      32      90      30      1      1      1      389      569
47      30      35      90      10      1      1      1      947      1127
48      28      30      90      10      1      1      1      573      753
49      28      35      90      10      1      1      1      944      1124
50      26      32      90      10      1      1      1      758      938
51      25      30      90      10      1      1      1      666      846
52      25      35      90      10      1      1      1      851      1031
53      44      5      90      20      1      1      1      227      407
54      42      10      90      40      1      1      1      132      312
55      42      15      90      10      1      1      1      37      217
56      40      5      90      30      1      1      1      321      501
57      40      15      90      40      1      1      1      35      215
58      38      5      90      30      1      1      1      413      593
59      38      15      90      10      1      1      1      606      786
60      35      5      90      20      1      1      1      506      686
61      50      30      90      10      1      1      1      481      661
62      50      35      90      20      1      1      1      200      380
63      50      40      90      50      1      1      1      105      285
64      48      30      90      10      1      1      1      573      753
65      48      40      90      10      1      1      1      13      193
66      47      35      90      10      1      1      1      761      941
67      47      40      90      10      1      1      1      12      192
68      45      30      90      10      1      1      1      666      846
69      45      35      90      10      1      1      1      853      1033
70      95      30      90      30      1      1      1      332      512
71      95      35      90      20      1      1      1      237      417
72      53      30      90      10      1      1      1      388      568
73      92      30      90      10      1      1      1      425      605
74      53      35      90      50      1      1      1      293      473
75      45      65      90      20      1      1      1      943      1123
76      90      35      90      10      1      1      1      142      322
77      88      30      90      10      1      1      1      519      699
78      88      35      90      20      1      1      1      50      230
79      87      30      90      10      1      1      1      610      790
80      85      25      90      10      1      1      1      705      885
81      85      35      90      30      1      1      1      47      227
82      75      55      90      20      1      1      1      305      485
83      72      55      90      10      1      1      1      212      392
84      70      58      90      20      1      1      1      401      581
85      68      60      90      30      1      1      1      494      674
86      66      55      90      10      1      1      1      116      296
87      65      55      90      20      1      1      1      25      205
88      65      60      90      30      1      1      1      587      767
89      63      58      90      10      1      1      1      680      860
90      60      55      90      10      1      1      1      20      200
91      60      60      90      10      1      1      1      773      953
92      67      85      90      20      1      1      1      315      495
93      65      85      90      40      1      1      1      407      587
94      65      82      90      10      1      1      1      221      401
95      62      80      90      30      1      1      1      128      308
96      60      80      90      10      1      1      1      36      216
97      60      85      90      30      1      1      1      502      682
98      58      75      90      20      1      1      1      30      210
99      55      80      90      10      1      1      1      692      872
100      55      85      90      20      1      1      1      597      777
